100 156476
80 61 30 43 70 72 84 67 94 77 83 15 9 25 50 3 89 93 55 13 35 75 29 59 16 32 31 52 6 24 76 66 1 11 26 2 95 51 69 18 44 12 90 36 42 46 19 40 62 65 21 22 82 5 81 68 20 8 98 41 37 99 14 97 86 48 4 7 57 39 45 49 58 87 96 74 28 10 73 47 23 38 100 71 85 17 56 64 63 60 34 91 54 92 79 53 27 33 88 78 
